(set-logic HORN)
(declare-datatypes ((Nat_1 0)) (((Z_0 ) (S_0 (unS_0 Nat_1)))))
(declare-fun diseqNat_0 (Nat_1 Nat_1) Bool)
(declare-fun unS_1 (Nat_1 Nat_1) Bool)
(declare-fun isZ_0 (Nat_1) Bool)
(declare-fun isS_0 (Nat_1) Bool)
(assert (forall ((x_118 Nat_1) (x_117 Nat_1))
	(=> (= x_118 (S_0 x_117))
	    (unS_1 x_117 x_118))))
(assert (isZ_0 Z_0))
(assert (forall ((x_119 Nat_1))
	(isS_0 (S_0 x_119))))
(assert (forall ((x_120 Nat_1))
	(diseqNat_0 Z_0 (S_0 x_120))))
(assert (forall ((x_121 Nat_1))
	(diseqNat_0 (S_0 x_121) Z_0)))
(assert (forall ((x_122 Nat_1) (x_123 Nat_1))
	(=> (diseqNat_0 x_122 x_123)
	    (diseqNat_0 (S_0 x_122) (S_0 x_123)))))
(declare-fun add_0 (Nat_1 Nat_1 Nat_1) Bool)
(declare-fun minus_1 (Nat_1 Nat_1 Nat_1) Bool)
(declare-fun le_0 (Nat_1 Nat_1) Bool)
(declare-fun ge_0 (Nat_1 Nat_1) Bool)
(declare-fun lt_1 (Nat_1 Nat_1) Bool)
(declare-fun gt_0 (Nat_1 Nat_1) Bool)
(declare-fun mult_0 (Nat_1 Nat_1 Nat_1) Bool)
(declare-fun div_0 (Nat_1 Nat_1 Nat_1) Bool)
(declare-fun mod_0 (Nat_1 Nat_1 Nat_1) Bool)
(assert (forall ((y_19 Nat_1))
	(add_0 y_19 Z_0 y_19)))
(assert (forall ((x_115 Nat_1) (y_19 Nat_1) (r_0 Nat_1))
	(=> (add_0 r_0 x_115 y_19)
	    (add_0 (S_0 r_0) (S_0 x_115) y_19))))
(assert (forall ((y_19 Nat_1))
	(minus_1 Z_0 Z_0 y_19)))
(assert (forall ((x_115 Nat_1) (y_19 Nat_1) (r_0 Nat_1))
	(=> (minus_1 r_0 x_115 y_19)
	    (minus_1 (S_0 r_0) (S_0 x_115) y_19))))
(assert (forall ((y_19 Nat_1))
	(le_0 Z_0 y_19)))
(assert (forall ((x_115 Nat_1) (y_19 Nat_1))
	(=> (le_0 x_115 y_19)
	    (le_0 (S_0 x_115) (S_0 y_19)))))
(assert (forall ((y_19 Nat_1))
	(ge_0 y_19 Z_0)))
(assert (forall ((x_115 Nat_1) (y_19 Nat_1))
	(=> (ge_0 x_115 y_19)
	    (ge_0 (S_0 x_115) (S_0 y_19)))))
(assert (forall ((y_19 Nat_1))
	(lt_1 Z_0 (S_0 y_19))))
(assert (forall ((x_115 Nat_1) (y_19 Nat_1))
	(=> (lt_1 x_115 y_19)
	    (lt_1 (S_0 x_115) (S_0 y_19)))))
(assert (forall ((y_19 Nat_1))
	(gt_0 (S_0 y_19) Z_0)))
(assert (forall ((x_115 Nat_1) (y_19 Nat_1))
	(=> (gt_0 x_115 y_19)
	    (gt_0 (S_0 x_115) (S_0 y_19)))))
(assert (forall ((y_19 Nat_1))
	(mult_0 Z_0 Z_0 y_19)))
(assert (forall ((x_115 Nat_1) (y_19 Nat_1) (r_0 Nat_1) (z_12 Nat_1))
	(=>	(and (mult_0 r_0 x_115 y_19)
			(add_0 z_12 r_0 y_19))
		(mult_0 z_12 (S_0 x_115) y_19))))
(assert (forall ((x_115 Nat_1) (y_19 Nat_1))
	(=> (lt_1 x_115 y_19)
	    (div_0 Z_0 x_115 y_19))))
(assert (forall ((x_115 Nat_1) (y_19 Nat_1) (r_0 Nat_1) (z_12 Nat_1))
	(=>	(and (ge_0 x_115 y_19)
			(minus_1 z_12 x_115 y_19)
			(div_0 r_0 z_12 y_19))
		(div_0 (S_0 r_0) x_115 y_19))))
(assert (forall ((x_115 Nat_1) (y_19 Nat_1))
	(=> (lt_1 x_115 y_19)
	    (mod_0 x_115 x_115 y_19))))
(assert (forall ((x_115 Nat_1) (y_19 Nat_1) (r_0 Nat_1) (z_12 Nat_1))
	(=>	(and (ge_0 x_115 y_19)
			(minus_1 z_12 x_115 y_19)
			(mod_0 r_0 z_12 y_19))
		(mod_0 r_0 x_115 y_19))))
(declare-datatypes ((Nat_0 0)) (((zero_0 ) (succ_0 (p_0 Nat_0)))))
(declare-fun diseqNat_1 (Nat_0 Nat_0) Bool)
(declare-fun p_1 (Nat_0 Nat_0) Bool)
(declare-fun iszero_0 (Nat_0) Bool)
(declare-fun issucc_0 (Nat_0) Bool)
(assert (forall ((x_126 Nat_0) (x_125 Nat_0))
	(=> (= x_126 (succ_0 x_125))
	    (p_1 x_125 x_126))))
(assert (iszero_0 zero_0))
(assert (forall ((x_127 Nat_0))
	(issucc_0 (succ_0 x_127))))
(assert (forall ((x_128 Nat_0))
	(diseqNat_1 zero_0 (succ_0 x_128))))
(assert (forall ((x_129 Nat_0))
	(diseqNat_1 (succ_0 x_129) zero_0)))
(assert (forall ((x_130 Nat_0) (x_131 Nat_0))
	(=> (diseqNat_1 x_130 x_131)
	    (diseqNat_1 (succ_0 x_130) (succ_0 x_131)))))
(declare-datatypes ((list_0 0)) (((nil_0 ) (cons_0 (head_0 Nat_0) (tail_0 list_0)))))
(declare-fun diseqlist_0 (list_0 list_0) Bool)
(declare-fun head_1 (Nat_0 list_0) Bool)
(declare-fun tail_1 (list_0 list_0) Bool)
(declare-fun isnil_0 (list_0) Bool)
(declare-fun iscons_0 (list_0) Bool)
(assert (forall ((x_135 list_0) (x_133 Nat_0) (x_134 list_0))
	(=> (= x_135 (cons_0 x_133 x_134))
	    (head_1 x_133 x_135))))
(assert (forall ((x_135 list_0) (x_133 Nat_0) (x_134 list_0))
	(=> (= x_135 (cons_0 x_133 x_134))
	    (tail_1 x_134 x_135))))
(assert (isnil_0 nil_0))
(assert (forall ((x_136 Nat_0) (x_137 list_0))
	(iscons_0 (cons_0 x_136 x_137))))
(assert (forall ((x_138 Nat_0) (x_139 list_0))
	(diseqlist_0 nil_0 (cons_0 x_138 x_139))))
(assert (forall ((x_140 Nat_0) (x_141 list_0))
	(diseqlist_0 (cons_0 x_140 x_141) nil_0)))
(assert (forall ((x_142 Nat_0) (x_143 list_0) (x_144 Nat_0) (x_145 list_0))
	(=> (diseqNat_1 x_142 x_144)
	    (diseqlist_0 (cons_0 x_142 x_143) (cons_0 x_144 x_145)))))
(assert (forall ((x_142 Nat_0) (x_143 list_0) (x_144 Nat_0) (x_145 list_0))
	(=> (diseqlist_0 x_143 x_145)
	    (diseqlist_0 (cons_0 x_142 x_143) (cons_0 x_144 x_145)))))
(declare-datatypes ((pair_0 0)) (((pair_1 (projpair_0 list_0) (projpair_1 list_0)))))
(declare-fun diseqpair_0 (pair_0 pair_0) Bool)
(declare-fun projpair_2 (list_0 pair_0) Bool)
(declare-fun projpair_3 (list_0 pair_0) Bool)
(declare-fun ispair_0 (pair_0) Bool)
(assert (forall ((x_148 pair_0) (x_146 list_0) (x_147 list_0))
	(=> (= x_148 (pair_1 x_146 x_147))
	    (projpair_2 x_146 x_148))))
(assert (forall ((x_148 pair_0) (x_146 list_0) (x_147 list_0))
	(=> (= x_148 (pair_1 x_146 x_147))
	    (projpair_3 x_147 x_148))))
(assert (forall ((x_149 list_0) (x_150 list_0))
	(ispair_0 (pair_1 x_149 x_150))))
(assert (forall ((x_151 list_0) (x_152 list_0) (x_153 list_0) (x_154 list_0))
	(=> (diseqlist_0 x_151 x_153)
	    (diseqpair_0 (pair_1 x_151 x_152) (pair_1 x_153 x_154)))))
(assert (forall ((x_151 list_0) (x_152 list_0) (x_153 list_0) (x_154 list_0))
	(=> (diseqlist_0 x_152 x_154)
	    (diseqpair_0 (pair_1 x_151 x_152) (pair_1 x_153 x_154)))))
(declare-fun take_0 (list_0 Nat_0 list_0) Bool)
(assert (forall ((x_0 Nat_0) (y_0 list_0) (z_0 Nat_0) (z_1 Nat_0) (xs_0 list_0) (x_26 list_0) (x_27 list_0))
	(=>	(and (= x_26 (cons_0 z_1 x_27))
			(take_0 x_27 z_0 xs_0)
			(= x_0 (succ_0 z_0))
			(= y_0 (cons_0 z_1 xs_0)))
		(take_0 x_26 x_0 y_0))))
(assert (forall ((x_0 Nat_0) (y_0 list_0) (z_0 Nat_0) (x_28 list_0))
	(=>	(and (= x_28 nil_0)
			(= x_0 (succ_0 z_0))
			(= y_0 nil_0))
		(take_0 x_28 x_0 y_0))))
(assert (forall ((x_0 Nat_0) (y_0 list_0) (x_29 list_0))
	(=>	(and (= x_29 nil_0)
			(= x_0 zero_0))
		(take_0 x_29 x_0 y_0))))
(declare-fun plus_0 (Nat_0 Nat_0 Nat_0) Bool)
(assert (forall ((x_1 Nat_0) (y_1 Nat_0) (z_2 Nat_0) (x_30 Nat_0) (x_31 Nat_0))
	(=>	(and (= x_30 (succ_0 x_31))
			(plus_0 x_31 z_2 y_1)
			(= x_1 (succ_0 z_2)))
		(plus_0 x_30 x_1 y_1))))
(assert (forall ((x_1 Nat_0) (y_1 Nat_0) (x_32 Nat_0))
	(=>	(and (= x_32 y_1)
			(= x_1 zero_0))
		(plus_0 x_32 x_1 y_1))))
(declare-fun minus_0 (Nat_0 Nat_0 Nat_0) Bool)
(assert (forall ((x_2 Nat_0) (y_2 Nat_0) (z_3 Nat_0) (y_3 Nat_0) (x_33 Nat_0) (x_34 Nat_0))
	(=>	(and (= x_33 x_34)
			(minus_0 x_34 z_3 y_3)
			(= x_2 (succ_0 z_3))
			(= y_2 (succ_0 y_3)))
		(minus_0 x_33 x_2 y_2))))
(assert (forall ((x_2 Nat_0) (y_2 Nat_0) (z_3 Nat_0) (x_35 Nat_0))
	(=>	(and (= x_35 zero_0)
			(= x_2 (succ_0 z_3))
			(= y_2 zero_0))
		(minus_0 x_35 x_2 y_2))))
(assert (forall ((x_2 Nat_0) (y_2 Nat_0) (x_36 Nat_0))
	(=>	(and (= x_36 zero_0)
			(= x_2 zero_0))
		(minus_0 x_36 x_2 y_2))))
(declare-fun lt_0 (Bool Nat_0 Nat_0) Bool)
(assert (forall ((x_3 Nat_0) (y_4 Nat_0) (z_4 Nat_0) (n_0 Nat_0) (x_37 Bool) (x_38 Bool))
	(=>	(and (= x_37 x_38)
			(lt_0 x_38 n_0 z_4)
			(= y_4 (succ_0 z_4))
			(= x_3 (succ_0 n_0)))
		(lt_0 x_37 x_3 y_4))))
(assert (forall ((x_3 Nat_0) (y_4 Nat_0) (z_4 Nat_0) (x_39 Bool))
	(=>	(and (= x_39 true)
			(= y_4 (succ_0 z_4))
			(= x_3 zero_0))
		(lt_0 x_39 x_3 y_4))))
(assert (forall ((x_3 Nat_0) (y_4 Nat_0) (x_40 Bool))
	(=>	(and (= x_40 false)
			(= y_4 zero_0))
		(lt_0 x_40 x_3 y_4))))
(declare-fun leq_0 (Bool Nat_0 Nat_0) Bool)
(assert (forall ((x_4 Nat_0) (y_5 Nat_0) (z_5 Nat_0) (x_5 Nat_0) (x_41 Bool) (x_42 Bool))
	(=>	(and (= x_41 x_42)
			(leq_0 x_42 z_5 x_5)
			(= x_4 (succ_0 z_5))
			(= y_5 (succ_0 x_5)))
		(leq_0 x_41 x_4 y_5))))
(assert (forall ((x_4 Nat_0) (y_5 Nat_0) (z_5 Nat_0) (x_43 Bool))
	(=>	(and (= x_43 false)
			(= x_4 (succ_0 z_5))
			(= y_5 zero_0))
		(leq_0 x_43 x_4 y_5))))
(assert (forall ((x_4 Nat_0) (y_5 Nat_0) (x_44 Bool))
	(=>	(and (= x_44 true)
			(= x_4 zero_0))
		(leq_0 x_44 x_4 y_5))))
(declare-fun sort_0 (list_0 Nat_0 Nat_0) Bool)
(assert (forall ((x_6 Nat_0) (y_6 Nat_0) (x_46 list_0) (x_45 Bool))
	(=>	(and (= x_46 (cons_0 x_6 (cons_0 y_6 nil_0)))
			(= x_45 true)
			(leq_0 x_45 x_6 y_6))
		(sort_0 x_46 x_6 y_6))))
(assert (forall ((x_6 Nat_0) (y_6 Nat_0) (x_48 list_0) (x_47 Bool))
	(=>	(and (= x_48 (cons_0 y_6 (cons_0 x_6 nil_0)))
			(= x_47 false)
			(leq_0 x_47 x_6 y_6))
		(sort_0 x_48 x_6 y_6))))
(declare-fun length_0 (Nat_0 list_0) Bool)
(assert (forall ((x_7 list_0) (y_7 Nat_0) (l_0 list_0) (x_49 Nat_0) (x_50 Nat_0) (x_51 Nat_0))
	(=>	(and (= x_49 x_51)
			(length_0 x_50 l_0)
			(plus_0 x_51 (succ_0 zero_0) x_50)
			(= x_7 (cons_0 y_7 l_0)))
		(length_0 x_49 x_7))))
(assert (forall ((x_7 list_0) (x_52 Nat_0))
	(=>	(and (= x_52 zero_0)
			(= x_7 nil_0))
		(length_0 x_52 x_7))))
(declare-fun insert_0 (list_0 Nat_0 list_0) Bool)
(assert (forall ((x_8 Nat_0) (y_8 list_0) (z_6 Nat_0) (xs_1 list_0) (x_54 list_0) (x_53 Bool))
	(=>	(and (= x_54 (cons_0 x_8 (cons_0 z_6 xs_1)))
			(= y_8 (cons_0 z_6 xs_1))
			(= x_53 true)
			(leq_0 x_53 x_8 z_6))
		(insert_0 x_54 x_8 y_8))))
(assert (forall ((x_8 Nat_0) (y_8 list_0) (z_6 Nat_0) (xs_1 list_0) (x_56 list_0) (x_57 list_0) (x_55 Bool))
	(=>	(and (= x_56 (cons_0 z_6 x_57))
			(insert_0 x_57 x_8 xs_1)
			(= y_8 (cons_0 z_6 xs_1))
			(= x_55 false)
			(leq_0 x_55 x_8 z_6))
		(insert_0 x_56 x_8 y_8))))
(assert (forall ((x_8 Nat_0) (y_8 list_0) (x_58 list_0))
	(=>	(and (= x_58 (cons_0 x_8 nil_0))
			(= y_8 nil_0))
		(insert_0 x_58 x_8 y_8))))
(declare-fun isort_0 (list_0 list_0) Bool)
(assert (forall ((x_9 list_0) (y_9 Nat_0) (xs_2 list_0) (x_59 list_0) (x_60 list_0) (x_61 list_0))
	(=>	(and (= x_59 x_61)
			(isort_0 x_60 xs_2)
			(insert_0 x_61 y_9 x_60)
			(= x_9 (cons_0 y_9 xs_2)))
		(isort_0 x_59 x_9))))
(assert (forall ((x_9 list_0) (x_62 list_0))
	(=>	(and (= x_62 nil_0)
			(= x_9 nil_0))
		(isort_0 x_62 x_9))))
(declare-fun idiv_0 (Nat_0 Nat_0 Nat_0) Bool)
(assert (forall ((x_10 Nat_0) (y_10 Nat_0) (x_64 Nat_0) (x_63 Bool))
	(=>	(and (= x_64 zero_0)
			(= x_63 true)
			(lt_0 x_63 x_10 y_10))
		(idiv_0 x_64 x_10 y_10))))
(assert (forall ((x_10 Nat_0) (y_10 Nat_0) (x_66 Nat_0) (x_67 Nat_0) (x_68 Nat_0) (x_65 Bool))
	(=>	(and (= x_66 (succ_0 x_68))
			(minus_0 x_67 x_10 y_10)
			(idiv_0 x_68 x_67 y_10)
			(= x_65 false)
			(lt_0 x_65 x_10 y_10))
		(idiv_0 x_66 x_10 y_10))))
(declare-fun drop_0 (list_0 Nat_0 list_0) Bool)
(assert (forall ((x_11 Nat_0) (y_11 list_0) (z_7 Nat_0) (z_8 Nat_0) (xs_3 list_0) (x_69 list_0) (x_70 list_0))
	(=>	(and (= x_69 x_70)
			(drop_0 x_70 z_7 xs_3)
			(= x_11 (succ_0 z_7))
			(= y_11 (cons_0 z_8 xs_3)))
		(drop_0 x_69 x_11 y_11))))
(assert (forall ((x_11 Nat_0) (y_11 list_0) (z_7 Nat_0) (x_71 list_0))
	(=>	(and (= x_71 nil_0)
			(= x_11 (succ_0 z_7))
			(= y_11 nil_0))
		(drop_0 x_71 x_11 y_11))))
(assert (forall ((x_11 Nat_0) (y_11 list_0) (x_72 list_0))
	(=>	(and (= x_72 y_11)
			(= x_11 zero_0))
		(drop_0 x_72 x_11 y_11))))
(declare-fun splitAt_0 (pair_0 Nat_0 list_0) Bool)
(assert (forall ((x_12 Nat_0) (y_12 list_0) (x_73 pair_0) (x_74 list_0) (x_75 list_0))
	(=>	(and (= x_73 (pair_1 x_74 x_75))
			(take_0 x_74 x_12 y_12)
			(drop_0 x_75 x_12 y_12))
		(splitAt_0 x_73 x_12 y_12))))
(declare-fun x_13 (list_0 list_0 list_0) Bool)
(assert (forall ((x_14 list_0) (y_13 list_0) (z_9 Nat_0) (xs_4 list_0) (x_76 list_0) (x_77 list_0))
	(=>	(and (= x_76 (cons_0 z_9 x_77))
			(x_13 x_77 xs_4 y_13)
			(= x_14 (cons_0 z_9 xs_4)))
		(x_13 x_76 x_14 y_13))))
(assert (forall ((x_14 list_0) (y_13 list_0) (x_78 list_0))
	(=>	(and (= x_78 y_13)
			(= x_14 nil_0))
		(x_13 x_78 x_14 y_13))))
(declare-fun reverse_0 (list_0 list_0) Bool)
(assert (forall ((x_15 list_0) (y_14 Nat_0) (xs_5 list_0) (x_79 list_0) (x_80 list_0) (x_81 list_0))
	(=>	(and (= x_79 x_81)
			(reverse_0 x_80 xs_5)
			(x_13 x_81 x_80 (cons_0 y_14 nil_0))
			(= x_15 (cons_0 y_14 xs_5)))
		(reverse_0 x_79 x_15))))
(assert (forall ((x_15 list_0) (x_82 list_0))
	(=>	(and (= x_82 nil_0)
			(= x_15 nil_0))
		(reverse_0 x_82 x_15))))
(declare-fun stoogesort_0 (list_0 list_0) Bool)
(declare-fun stoogesort_1 (list_0 list_0) Bool)
(declare-fun stoogesort_2 (list_0 list_0) Bool)
(assert (forall ((x_16 list_0) (ys_0 list_0) (zs_0 list_0) (x_87 list_0) (x_88 list_0) (x_89 list_0) (x_90 list_0) (x_83 Nat_0) (x_84 Nat_0) (x_85 list_0) (x_86 pair_0))
	(=>	(and (= x_87 x_90)
			(stoogesort_1 x_88 zs_0)
			(reverse_0 x_89 ys_0)
			(x_13 x_90 x_88 x_89)
			(= x_86 (pair_1 ys_0 zs_0))
			(length_0 x_83 x_16)
			(idiv_0 x_84 x_83 (succ_0 (succ_0 (succ_0 zero_0))))
			(reverse_0 x_85 x_16)
			(splitAt_0 x_86 x_84 x_85))
		(stoogesort_0 x_87 x_16))))
(assert (forall ((x_17 list_0) (y_15 Nat_0) (z_10 list_0) (y_16 Nat_0) (x_18 list_0) (x_19 Nat_0) (x_20 list_0) (x_91 list_0) (x_92 list_0) (x_93 list_0) (x_94 list_0))
	(=>	(and (= x_91 x_94)
			(stoogesort_0 x_92 (cons_0 y_15 (cons_0 y_16 (cons_0 x_19 x_20))))
			(stoogesort_2 x_93 x_92)
			(stoogesort_0 x_94 x_93)
			(= x_17 (cons_0 y_15 z_10))
			(= z_10 (cons_0 y_16 x_18))
			(= x_18 (cons_0 x_19 x_20)))
		(stoogesort_1 x_91 x_17))))
(assert (forall ((x_17 list_0) (y_15 Nat_0) (z_10 list_0) (y_16 Nat_0) (x_18 list_0) (x_95 list_0) (x_96 list_0))
	(=>	(and (= x_95 x_96)
			(sort_0 x_96 y_15 y_16)
			(= x_17 (cons_0 y_15 z_10))
			(= z_10 (cons_0 y_16 x_18))
			(= x_18 nil_0))
		(stoogesort_1 x_95 x_17))))
(assert (forall ((x_17 list_0) (y_15 Nat_0) (z_10 list_0) (x_97 list_0))
	(=>	(and (= x_97 (cons_0 y_15 nil_0))
			(= x_17 (cons_0 y_15 z_10))
			(= z_10 nil_0))
		(stoogesort_1 x_97 x_17))))
(assert (forall ((x_17 list_0) (x_98 list_0))
	(=>	(and (= x_98 nil_0)
			(= x_17 nil_0))
		(stoogesort_1 x_98 x_17))))
(assert (forall ((x_21 list_0) (ys_1 list_0) (zs_1 list_0) (x_102 list_0) (x_103 list_0) (x_104 list_0) (x_99 Nat_0) (x_100 Nat_0) (x_101 pair_0))
	(=>	(and (= x_102 x_104)
			(stoogesort_1 x_103 zs_1)
			(x_13 x_104 ys_1 x_103)
			(= x_101 (pair_1 ys_1 zs_1))
			(length_0 x_99 x_21)
			(idiv_0 x_100 x_99 (succ_0 (succ_0 (succ_0 zero_0))))
			(splitAt_0 x_101 x_100 x_21))
		(stoogesort_2 x_102 x_21))))
(assert (forall ((x_22 Nat_0) (y_17 Nat_0) (z_11 Nat_0) (x_105 Nat_0) (x_106 Nat_0) (x_107 Nat_0) (x_108 Nat_0))
	(=>	(and (diseqNat_1 x_106 x_108)
			(plus_0 x_105 y_17 z_11)
			(plus_0 x_106 x_22 x_105)
			(plus_0 x_107 x_22 y_17)
			(plus_0 x_108 x_107 z_11))
		false)))
(assert (forall ((x_23 Nat_0) (y_18 Nat_0) (x_109 Nat_0) (x_110 Nat_0))
	(=>	(and (diseqNat_1 x_109 x_110)
			(plus_0 x_109 x_23 y_18)
			(plus_0 x_110 y_18 x_23))
		false)))
(assert (forall ((x_24 Nat_0) (x_111 Nat_0))
	(=>	(and (diseqNat_1 x_111 x_24)
			(plus_0 x_111 x_24 zero_0))
		false)))
(assert (forall ((x_25 Nat_0) (x_112 Nat_0))
	(=>	(and (diseqNat_1 x_112 x_25)
			(plus_0 x_112 zero_0 x_25))
		false)))
(assert (forall ((xs_6 list_0) (x_113 list_0) (x_114 list_0))
	(=>	(and (diseqlist_0 x_113 x_114)
			(stoogesort_1 x_113 xs_6)
			(isort_0 x_114 xs_6))
		false)))
(check-sat)
